r = [
0,11,10,14,2,7,10,5,14,5,3,0
];
p = [
0,4,18,13,10,1,28,14,19,22,13,0
];
e = [
0,20,15,20,9,7,10,14,13,4,13,0
];
d = [
0,139,139,135,128,137,131,128,137,128,127,141
];
d_bar = [
0,140,141,136,129,138,134,129,139,130,128,141
];
w = [
0,20,7.5,20,9,7,3.333333333,14,6.5,2,13,0
];
